(set-logic QF_ABV)

(declare-const __ESBMC_ptr_obj_start_0 (_ BitVec 64))

(declare-const __ESBMC_ptr_obj_end_0 (_ BitVec 64))

(declare-const __ESBMC_ptr_obj_start_1 (_ BitVec 64))

(declare-const __ESBMC_ptr_obj_end_1 (_ BitVec 64))

(declare-const |smt_conv::__ESBMC_ptr_addr_range_0..start0| (_ BitVec 64))

(declare-const |smt_conv::__ESBMC_ptr_addr_range_0..end0| (_ BitVec 64))

(declare-const |smt_conv::__ESBMC_ptr_addr_range_1..start0| (_ BitVec 64))

(declare-const |smt_conv::__ESBMC_ptr_addr_range_1..end0| (_ BitVec 64))

(declare-const |smt_conv::smt_conv::collate_array_vals::3..start0| (_ BitVec 64))

(declare-const |smt_conv::smt_conv::collate_array_vals::3..end0| (_ BitVec 64))

(declare-const |smt_conv::smt_conv::collate_array_vals::4..start0| (_ BitVec 64))

(declare-const |smt_conv::smt_conv::collate_array_vals::4..end0| (_ BitVec 64))

(declare-const |smt_conv::smt_conv::collate_array_vals::7..start0| (_ BitVec 64))

(declare-const |smt_conv::smt_conv::collate_array_vals::7..end0| (_ BitVec 64))

(declare-const |nondet$symex::nondet66| (_ BitVec 8))

(declare-const |nondet$symex::nondet67| (_ BitVec 8))

(declare-const |nondet$symex::nondet68| (_ BitVec 8))

(declare-const |nondet$symex::nondet69| (_ BitVec 8))

(declare-const |nondet$symex::nondet70| (_ BitVec 8))

(declare-const |nondet$symex::nondet71| (_ BitVec 8))

(declare-const |nondet$symex::nondet72| (_ BitVec 8))

(declare-const |nondet$symex::nondet73| (_ BitVec 8))

(declare-const |nondet$symex::nondet74| (_ BitVec 8))

(declare-const |nondet$symex::nondet75| (_ BitVec 8))

(declare-const |nondet$symex::nondet76| (_ BitVec 8))

(declare-const |c:verisec_sendmail_tTflag_arr_one_loop.c@493@F@main@c?1!0&0#1| (_ BitVec 8))

(declare-const |goto_symex::guard?0!0&0#1| (_ BitVec 1))

(declare-const |c:verisec_sendmail_tTflag_arr_one_loop.c@512@F@main@j?1!0&0#1| (_ BitVec 32))

(declare-const |c:verisec_sendmail_tTflag_arr_one_loop.c@512@F@main@i?1!0&0#14| (_ BitVec 32))

(declare-const |c:verisec_sendmail_tTflag_arr_one_loop.c@493@F@main@c?1!0&0#2| (_ BitVec 8))

(declare-const |goto_symex::guard?0!0&0#2| (_ BitVec 1))

(declare-const |c:verisec_sendmail_tTflag_arr_one_loop.c@512@F@main@j?1!0&0#2| (_ BitVec 32))

(declare-const |c:verisec_sendmail_tTflag_arr_one_loop.c@512@F@main@i?1!0&0#15| (_ BitVec 32))

(declare-const |c:verisec_sendmail_tTflag_arr_one_loop.c@493@F@main@c?1!0&0#3| (_ BitVec 8))

(declare-const |goto_symex::guard?0!0&0#3| (_ BitVec 1))

(declare-const |c:verisec_sendmail_tTflag_arr_one_loop.c@512@F@main@j?1!0&0#3| (_ BitVec 32))

(declare-const |c:verisec_sendmail_tTflag_arr_one_loop.c@512@F@main@i?1!0&0#16| (_ BitVec 32))

(declare-const |c:verisec_sendmail_tTflag_arr_one_loop.c@493@F@main@c?1!0&0#4| (_ BitVec 8))

(declare-const |goto_symex::guard?0!0&0#4| (_ BitVec 1))

(declare-const |c:verisec_sendmail_tTflag_arr_one_loop.c@512@F@main@j?1!0&0#4| (_ BitVec 32))

(declare-const |c:verisec_sendmail_tTflag_arr_one_loop.c@512@F@main@i?1!0&0#17| (_ BitVec 32))

(declare-const |c:verisec_sendmail_tTflag_arr_one_loop.c@493@F@main@c?1!0&0#5| (_ BitVec 8))

(declare-const |goto_symex::guard?0!0&0#5| (_ BitVec 1))

(declare-const |c:verisec_sendmail_tTflag_arr_one_loop.c@512@F@main@j?1!0&0#5| (_ BitVec 32))

(declare-const |c:verisec_sendmail_tTflag_arr_one_loop.c@512@F@main@i?1!0&0#18| (_ BitVec 32))

(declare-const |c:verisec_sendmail_tTflag_arr_one_loop.c@493@F@main@c?1!0&0#6| (_ BitVec 8))

(declare-const |goto_symex::guard?0!0&0#6| (_ BitVec 1))

(declare-const |c:verisec_sendmail_tTflag_arr_one_loop.c@512@F@main@j?1!0&0#6| (_ BitVec 32))

(declare-const |c:verisec_sendmail_tTflag_arr_one_loop.c@512@F@main@i?1!0&0#19| (_ BitVec 32))

(declare-const |c:verisec_sendmail_tTflag_arr_one_loop.c@493@F@main@c?1!0&0#7| (_ BitVec 8))

(declare-const |goto_symex::guard?0!0&0#7| (_ BitVec 1))

(declare-const |c:verisec_sendmail_tTflag_arr_one_loop.c@512@F@main@j?1!0&0#7| (_ BitVec 32))

(declare-const |c:verisec_sendmail_tTflag_arr_one_loop.c@512@F@main@i?1!0&0#20| (_ BitVec 32))

(declare-const |c:verisec_sendmail_tTflag_arr_one_loop.c@493@F@main@c?1!0&0#8| (_ BitVec 8))

(declare-const |goto_symex::guard?0!0&0#8| (_ BitVec 1))

(declare-const |c:verisec_sendmail_tTflag_arr_one_loop.c@512@F@main@j?1!0&0#8| (_ BitVec 32))

(declare-const |c:verisec_sendmail_tTflag_arr_one_loop.c@512@F@main@i?1!0&0#21| (_ BitVec 32))

(declare-const |c:verisec_sendmail_tTflag_arr_one_loop.c@493@F@main@c?1!0&0#9| (_ BitVec 8))

(declare-const |goto_symex::guard?0!0&0#9| (_ BitVec 1))

(declare-const |c:verisec_sendmail_tTflag_arr_one_loop.c@512@F@main@j?1!0&0#9| (_ BitVec 32))

(declare-const |c:verisec_sendmail_tTflag_arr_one_loop.c@512@F@main@i?1!0&0#22| (_ BitVec 32))

(declare-const |c:verisec_sendmail_tTflag_arr_one_loop.c@493@F@main@c?1!0&0#10| (_ BitVec 8))

(declare-const |goto_symex::guard?0!0&0#10| (_ BitVec 1))

(declare-const |c:verisec_sendmail_tTflag_arr_one_loop.c@512@F@main@j?1!0&0#10| (_ BitVec 32))

(declare-const |c:verisec_sendmail_tTflag_arr_one_loop.c@512@F@main@i?1!0&0#23| (_ BitVec 32))

(declare-const |c:verisec_sendmail_tTflag_arr_one_loop.c@493@F@main@c?1!0&0#11| (_ BitVec 8))

(declare-const |goto_symex::guard?0!0&0#11| (_ BitVec 1))

(declare-const |c:verisec_sendmail_tTflag_arr_one_loop.c@512@F@main@j?1!0&0#11| (_ BitVec 32))

(declare-const |c:verisec_sendmail_tTflag_arr_one_loop.c@512@F@main@i?1!0&0#24| (_ BitVec 32))

(declare-const |c:verisec_sendmail_tTflag_arr_one_loop.c@493@F@main@c?1!0&0#12| (_ BitVec 8))

(declare-const |goto_symex::guard?0!0&0#12| (_ BitVec 1))

(declare-const |execution_statet::guard_exec?0!0| (_ BitVec 1))

(declare-const |c:verisec_sendmail_tTflag_arr_one_loop.c@512@F@main@i?1!0&0#26| (_ BitVec 32))

(declare-const |c:verisec_sendmail_tTflag_arr_one_loop.c@512@F@main@i?1!0&0#27| (_ BitVec 32))

(declare-const |c:verisec_sendmail_tTflag_arr_one_loop.c@512@F@main@i?1!0&0#28| (_ BitVec 32))

(declare-const |c:verisec_sendmail_tTflag_arr_one_loop.c@512@F@main@i?1!0&0#29| (_ BitVec 32))

(declare-const |c:verisec_sendmail_tTflag_arr_one_loop.c@512@F@main@i?1!0&0#30| (_ BitVec 32))

(declare-const |c:verisec_sendmail_tTflag_arr_one_loop.c@512@F@main@i?1!0&0#31| (_ BitVec 32))

(declare-const |c:verisec_sendmail_tTflag_arr_one_loop.c@512@F@main@i?1!0&0#32| (_ BitVec 32))

(declare-const |c:verisec_sendmail_tTflag_arr_one_loop.c@512@F@main@i?1!0&0#33| (_ BitVec 32))

(declare-const |c:verisec_sendmail_tTflag_arr_one_loop.c@512@F@main@i?1!0&0#34| (_ BitVec 32))

(declare-const |c:verisec_sendmail_tTflag_arr_one_loop.c@512@F@main@i?1!0&0#35| (_ BitVec 32))

(declare-const |c:verisec_sendmail_tTflag_arr_one_loop.c@512@F@main@i?1!0&0#36| (_ BitVec 32))

(declare-const |c:verisec_sendmail_tTflag_arr_one_loop.c@512@F@main@i?1!0&0#37| (_ BitVec 32))

(declare-const |c:verisec_sendmail_tTflag_arr_one_loop.c@346@F@__VERIFIER_assert@cond?1!0&0#1| (_ BitVec 32))

(declare-const |goto_symex::guard?0!0&0#13| (_ BitVec 1))

(declare-const |c:verisec_sendmail_tTflag_arr_one_loop.c@448@F@main@in?1!0&0#1| (Array (_ BitVec 4) (_ BitVec 8)))

(declare-const |c:verisec_sendmail_tTflag_arr_one_loop.c@448@F@main@in?1!0&0#0| (Array (_ BitVec 4) (_ BitVec 8)))

(declare-const |c:verisec_sendmail_tTflag_arr_one_loop.c@448@F@main@in?1!0&0#2| (Array (_ BitVec 4) (_ BitVec 8)))

(declare-const |c:verisec_sendmail_tTflag_arr_one_loop.c@448@F@main@in?1!0&0#3| (Array (_ BitVec 4) (_ BitVec 8)))

(declare-const |c:verisec_sendmail_tTflag_arr_one_loop.c@448@F@main@in?1!0&0#4| (Array (_ BitVec 4) (_ BitVec 8)))

(declare-const |c:verisec_sendmail_tTflag_arr_one_loop.c@448@F@main@in?1!0&0#5| (Array (_ BitVec 4) (_ BitVec 8)))

(declare-const |c:verisec_sendmail_tTflag_arr_one_loop.c@448@F@main@in?1!0&0#6| (Array (_ BitVec 4) (_ BitVec 8)))

(declare-const |c:verisec_sendmail_tTflag_arr_one_loop.c@448@F@main@in?1!0&0#7| (Array (_ BitVec 4) (_ BitVec 8)))

(declare-const |c:verisec_sendmail_tTflag_arr_one_loop.c@448@F@main@in?1!0&0#8| (Array (_ BitVec 4) (_ BitVec 8)))

(declare-const |c:verisec_sendmail_tTflag_arr_one_loop.c@448@F@main@in?1!0&0#9| (Array (_ BitVec 4) (_ BitVec 8)))

(declare-const |c:verisec_sendmail_tTflag_arr_one_loop.c@448@F@main@in?1!0&0#10| (Array (_ BitVec 4) (_ BitVec 8)))

(declare-const |c:verisec_sendmail_tTflag_arr_one_loop.c@448@F@main@in?1!0&0#11| (Array (_ BitVec 4) (_ BitVec 8)))

(declare-const |c:verisec_sendmail_tTflag_arr_one_loop.c@448@F@main@in?1!0&0#12| (Array (_ BitVec 4) (_ BitVec 8)))

(define-fun $e1 () (_ BitVec 32) 

 (concat #b000000000000000000000000 |c:verisec_sendmail_tTflag_arr_one_loop.c@493@F@main@c?1!0&0#1|))

(define-fun $e2 () (_ BitVec 32) 

 (concat #b000000000000000000000000 |c:verisec_sendmail_tTflag_arr_one_loop.c@493@F@main@c?1!0&0#2|))

(define-fun $e3 () (_ BitVec 32) 

 (concat #b000000000000000000000000 |c:verisec_sendmail_tTflag_arr_one_loop.c@493@F@main@c?1!0&0#3|))

(define-fun $e4 () (_ BitVec 32) 

 (concat #b000000000000000000000000 |c:verisec_sendmail_tTflag_arr_one_loop.c@493@F@main@c?1!0&0#4|))

(define-fun $e5 () (_ BitVec 32) 

 (concat #b000000000000000000000000 |c:verisec_sendmail_tTflag_arr_one_loop.c@493@F@main@c?1!0&0#5|))

(define-fun $e6 () (_ BitVec 32) 

 (concat #b000000000000000000000000 |c:verisec_sendmail_tTflag_arr_one_loop.c@493@F@main@c?1!0&0#6|))

(define-fun $e7 () (_ BitVec 32) 

 (concat #b000000000000000000000000 |c:verisec_sendmail_tTflag_arr_one_loop.c@493@F@main@c?1!0&0#7|))

(define-fun $e8 () (_ BitVec 32) 

 (concat #b000000000000000000000000 |c:verisec_sendmail_tTflag_arr_one_loop.c@493@F@main@c?1!0&0#8|))

(define-fun $e9 () (_ BitVec 32) 

 (concat #b000000000000000000000000 |c:verisec_sendmail_tTflag_arr_one_loop.c@493@F@main@c?1!0&0#9|))

(define-fun $e10 () (_ BitVec 32) 

 (concat #b000000000000000000000000 |c:verisec_sendmail_tTflag_arr_one_loop.c@493@F@main@c?1!0&0#10|))

(define-fun $e11 () (_ BitVec 32) 

 (concat #b000000000000000000000000 |c:verisec_sendmail_tTflag_arr_one_loop.c@493@F@main@c?1!0&0#11|))

(define-fun $e12 () (_ BitVec 32) 

 (concat #b000000000000000000000000 |c:verisec_sendmail_tTflag_arr_one_loop.c@493@F@main@c?1!0&0#12|))

(assert 

 (= __ESBMC_ptr_obj_start_0 #b0000000000000000000000000000000000000000000000000000000000000000))

(assert 

 (= #b0000000000000000000000000000000000000000000000000000000000000000 __ESBMC_ptr_obj_end_0))

(assert 

 (= __ESBMC_ptr_obj_start_1 #b0000000000000000000000000000000000000000000000000000000000000001))

(assert 

 (= #b1111111111111111111111111111111111111111111111111111111111111111 __ESBMC_ptr_obj_end_1))

(assert 

 (= __ESBMC_ptr_obj_end_0 |smt_conv::__ESBMC_ptr_addr_range_0..end0|))

(assert 

 (= __ESBMC_ptr_obj_start_0 |smt_conv::__ESBMC_ptr_addr_range_0..start0|))

(assert 

 (= __ESBMC_ptr_obj_end_1 |smt_conv::__ESBMC_ptr_addr_range_1..end0|))

(assert 

 (= __ESBMC_ptr_obj_start_1 |smt_conv::__ESBMC_ptr_addr_range_1..start0|))

(assert 

 (= |smt_conv::smt_conv::collate_array_vals::3..end0| |smt_conv::smt_conv::collate_array_vals::4..end0|))

(assert 

 (= |smt_conv::smt_conv::collate_array_vals::3..start0| |smt_conv::smt_conv::collate_array_vals::4..start0|))

(assert 

 (= __ESBMC_ptr_obj_end_0 |smt_conv::smt_conv::collate_array_vals::7..end0|))

(assert 

 (= __ESBMC_ptr_obj_start_0 |smt_conv::smt_conv::collate_array_vals::7..start0|))

(assert 

 (= |c:verisec_sendmail_tTflag_arr_one_loop.c@448@F@main@in?1!0&0#1| 

  (store |c:verisec_sendmail_tTflag_arr_one_loop.c@448@F@main@in?1!0&0#0| #b0000 |nondet$symex::nondet66|)))

(assert 

 (= |c:verisec_sendmail_tTflag_arr_one_loop.c@448@F@main@in?1!0&0#2| 

  (store |c:verisec_sendmail_tTflag_arr_one_loop.c@448@F@main@in?1!0&0#1| #b0001 |nondet$symex::nondet67|)))

(assert 

 (= |c:verisec_sendmail_tTflag_arr_one_loop.c@448@F@main@in?1!0&0#3| 

  (store |c:verisec_sendmail_tTflag_arr_one_loop.c@448@F@main@in?1!0&0#2| #b0010 |nondet$symex::nondet68|)))

(assert 

 (= |c:verisec_sendmail_tTflag_arr_one_loop.c@448@F@main@in?1!0&0#4| 

  (store |c:verisec_sendmail_tTflag_arr_one_loop.c@448@F@main@in?1!0&0#3| #b0011 |nondet$symex::nondet69|)))

(assert 

 (= |c:verisec_sendmail_tTflag_arr_one_loop.c@448@F@main@in?1!0&0#5| 

  (store |c:verisec_sendmail_tTflag_arr_one_loop.c@448@F@main@in?1!0&0#4| #b0100 |nondet$symex::nondet70|)))

(assert 

 (= |c:verisec_sendmail_tTflag_arr_one_loop.c@448@F@main@in?1!0&0#6| 

  (store |c:verisec_sendmail_tTflag_arr_one_loop.c@448@F@main@in?1!0&0#5| #b0101 |nondet$symex::nondet71|)))

(assert 

 (= |c:verisec_sendmail_tTflag_arr_one_loop.c@448@F@main@in?1!0&0#7| 

  (store |c:verisec_sendmail_tTflag_arr_one_loop.c@448@F@main@in?1!0&0#6| #b0110 |nondet$symex::nondet72|)))

(assert 

 (= |c:verisec_sendmail_tTflag_arr_one_loop.c@448@F@main@in?1!0&0#8| 

  (store |c:verisec_sendmail_tTflag_arr_one_loop.c@448@F@main@in?1!0&0#7| #b0111 |nondet$symex::nondet73|)))

(assert 

 (= |c:verisec_sendmail_tTflag_arr_one_loop.c@448@F@main@in?1!0&0#9| 

  (store |c:verisec_sendmail_tTflag_arr_one_loop.c@448@F@main@in?1!0&0#8| #b1000 |nondet$symex::nondet74|)))

(assert 

 (= |c:verisec_sendmail_tTflag_arr_one_loop.c@448@F@main@in?1!0&0#10| 

  (store |c:verisec_sendmail_tTflag_arr_one_loop.c@448@F@main@in?1!0&0#9| #b1001 |nondet$symex::nondet75|)))

(assert 

 (= |c:verisec_sendmail_tTflag_arr_one_loop.c@448@F@main@in?1!0&0#11| 

  (store |c:verisec_sendmail_tTflag_arr_one_loop.c@448@F@main@in?1!0&0#10| #b1010 |nondet$symex::nondet76|)))

(assert 

 (= |c:verisec_sendmail_tTflag_arr_one_loop.c@448@F@main@in?1!0&0#12| 

  (store |c:verisec_sendmail_tTflag_arr_one_loop.c@448@F@main@in?1!0&0#11| #b1010 #b00000000)))

(assert 

 (= |c:verisec_sendmail_tTflag_arr_one_loop.c@493@F@main@c?1!0&0#1| 

  (select |c:verisec_sendmail_tTflag_arr_one_loop.c@448@F@main@in?1!0&0#12| #b0000)))

(assert 

 (= |goto_symex::guard?0!0&0#1| 

  (ite 

   (and 

    (not 

     (bvslt #b00000000000000000000000000111001 $e1)) 

    (not 

     (bvslt $e1 #b00000000000000000000000000110000))) #b1 #b0)))

(assert 

 (= |c:verisec_sendmail_tTflag_arr_one_loop.c@512@F@main@j?1!0&0#1| 

  (bvadd $e1 #b11111111111111111111111111010000)))

(assert 

 (= |c:verisec_sendmail_tTflag_arr_one_loop.c@512@F@main@j?1!0&0#1| |c:verisec_sendmail_tTflag_arr_one_loop.c@512@F@main@i?1!0&0#14|))

(assert 

 (= |c:verisec_sendmail_tTflag_arr_one_loop.c@493@F@main@c?1!0&0#2| 

  (select |c:verisec_sendmail_tTflag_arr_one_loop.c@448@F@main@in?1!0&0#12| #b0001)))

(assert 

 (= |goto_symex::guard?0!0&0#2| 

  (ite 

   (and 

    (not 

     (bvslt #b00000000000000000000000000111001 $e2)) 

    (not 

     (bvslt $e2 #b00000000000000000000000000110000))) #b1 #b0)))

(assert 

 (= |c:verisec_sendmail_tTflag_arr_one_loop.c@512@F@main@j?1!0&0#2| 

  (bvadd #b11111111111111111111111111010000 $e2)))

(assert 

 (= |c:verisec_sendmail_tTflag_arr_one_loop.c@512@F@main@i?1!0&0#15| 

  (bvadd |c:verisec_sendmail_tTflag_arr_one_loop.c@512@F@main@j?1!0&0#2| 

   (bvmul |c:verisec_sendmail_tTflag_arr_one_loop.c@512@F@main@i?1!0&0#14| #b00000000000000000000000000001010))))

(assert 

 (= |c:verisec_sendmail_tTflag_arr_one_loop.c@493@F@main@c?1!0&0#3| 

  (select |c:verisec_sendmail_tTflag_arr_one_loop.c@448@F@main@in?1!0&0#12| #b0010)))

(assert 

 (= |goto_symex::guard?0!0&0#3| 

  (ite 

   (and 

    (not 

     (bvslt #b00000000000000000000000000111001 $e3)) 

    (not 

     (bvslt $e3 #b00000000000000000000000000110000))) #b1 #b0)))

(assert 

 (= |c:verisec_sendmail_tTflag_arr_one_loop.c@512@F@main@j?1!0&0#3| 

  (bvadd #b11111111111111111111111111010000 $e3)))

(assert 

 (= |c:verisec_sendmail_tTflag_arr_one_loop.c@512@F@main@i?1!0&0#16| 

  (bvadd |c:verisec_sendmail_tTflag_arr_one_loop.c@512@F@main@j?1!0&0#3| 

   (bvmul |c:verisec_sendmail_tTflag_arr_one_loop.c@512@F@main@i?1!0&0#15| #b00000000000000000000000000001010))))

(assert 

 (= |c:verisec_sendmail_tTflag_arr_one_loop.c@493@F@main@c?1!0&0#4| 

  (select |c:verisec_sendmail_tTflag_arr_one_loop.c@448@F@main@in?1!0&0#12| #b0011)))

(assert 

 (= |goto_symex::guard?0!0&0#4| 

  (ite 

   (and 

    (not 

     (bvslt #b00000000000000000000000000111001 $e4)) 

    (not 

     (bvslt $e4 #b00000000000000000000000000110000))) #b1 #b0)))

(assert 

 (= |c:verisec_sendmail_tTflag_arr_one_loop.c@512@F@main@j?1!0&0#4| 

  (bvadd #b11111111111111111111111111010000 $e4)))

(assert 

 (= |c:verisec_sendmail_tTflag_arr_one_loop.c@512@F@main@i?1!0&0#17| 

  (bvadd |c:verisec_sendmail_tTflag_arr_one_loop.c@512@F@main@j?1!0&0#4| 

   (bvmul #b00000000000000000000000000001010 |c:verisec_sendmail_tTflag_arr_one_loop.c@512@F@main@i?1!0&0#16|))))

(assert 

 (= |c:verisec_sendmail_tTflag_arr_one_loop.c@493@F@main@c?1!0&0#5| 

  (select |c:verisec_sendmail_tTflag_arr_one_loop.c@448@F@main@in?1!0&0#12| #b0100)))

(assert 

 (= |goto_symex::guard?0!0&0#5| 

  (ite 

   (and 

    (not 

     (bvslt #b00000000000000000000000000111001 $e5)) 

    (not 

     (bvslt $e5 #b00000000000000000000000000110000))) #b1 #b0)))

(assert 

 (= |c:verisec_sendmail_tTflag_arr_one_loop.c@512@F@main@j?1!0&0#5| 

  (bvadd #b11111111111111111111111111010000 $e5)))

(assert 

 (= |c:verisec_sendmail_tTflag_arr_one_loop.c@512@F@main@i?1!0&0#18| 

  (bvadd |c:verisec_sendmail_tTflag_arr_one_loop.c@512@F@main@j?1!0&0#5| 

   (bvmul #b00000000000000000000000000001010 |c:verisec_sendmail_tTflag_arr_one_loop.c@512@F@main@i?1!0&0#17|))))

(assert 

 (= |c:verisec_sendmail_tTflag_arr_one_loop.c@493@F@main@c?1!0&0#6| 

  (select |c:verisec_sendmail_tTflag_arr_one_loop.c@448@F@main@in?1!0&0#12| #b0101)))

(assert 

 (= |goto_symex::guard?0!0&0#6| 

  (ite 

   (and 

    (not 

     (bvslt #b00000000000000000000000000111001 $e6)) 

    (not 

     (bvslt $e6 #b00000000000000000000000000110000))) #b1 #b0)))

(assert 

 (= |c:verisec_sendmail_tTflag_arr_one_loop.c@512@F@main@j?1!0&0#6| 

  (bvadd #b11111111111111111111111111010000 $e6)))

(assert 

 (= |c:verisec_sendmail_tTflag_arr_one_loop.c@512@F@main@i?1!0&0#19| 

  (bvadd |c:verisec_sendmail_tTflag_arr_one_loop.c@512@F@main@j?1!0&0#6| 

   (bvmul #b00000000000000000000000000001010 |c:verisec_sendmail_tTflag_arr_one_loop.c@512@F@main@i?1!0&0#18|))))

(assert 

 (= |c:verisec_sendmail_tTflag_arr_one_loop.c@493@F@main@c?1!0&0#7| 

  (select |c:verisec_sendmail_tTflag_arr_one_loop.c@448@F@main@in?1!0&0#12| #b0110)))

(assert 

 (= |goto_symex::guard?0!0&0#7| 

  (ite 

   (and 

    (not 

     (bvslt #b00000000000000000000000000111001 $e7)) 

    (not 

     (bvslt $e7 #b00000000000000000000000000110000))) #b1 #b0)))

(assert 

 (= |c:verisec_sendmail_tTflag_arr_one_loop.c@512@F@main@j?1!0&0#7| 

  (bvadd #b11111111111111111111111111010000 $e7)))

(assert 

 (= |c:verisec_sendmail_tTflag_arr_one_loop.c@512@F@main@i?1!0&0#20| 

  (bvadd |c:verisec_sendmail_tTflag_arr_one_loop.c@512@F@main@j?1!0&0#7| 

   (bvmul #b00000000000000000000000000001010 |c:verisec_sendmail_tTflag_arr_one_loop.c@512@F@main@i?1!0&0#19|))))

(assert 

 (= |c:verisec_sendmail_tTflag_arr_one_loop.c@493@F@main@c?1!0&0#8| 

  (select |c:verisec_sendmail_tTflag_arr_one_loop.c@448@F@main@in?1!0&0#12| #b0111)))

(assert 

 (= |goto_symex::guard?0!0&0#8| 

  (ite 

   (and 

    (not 

     (bvslt #b00000000000000000000000000111001 $e8)) 

    (not 

     (bvslt $e8 #b00000000000000000000000000110000))) #b1 #b0)))

(assert 

 (= |c:verisec_sendmail_tTflag_arr_one_loop.c@512@F@main@j?1!0&0#8| 

  (bvadd #b11111111111111111111111111010000 $e8)))

(assert 

 (= |c:verisec_sendmail_tTflag_arr_one_loop.c@512@F@main@i?1!0&0#21| 

  (bvadd |c:verisec_sendmail_tTflag_arr_one_loop.c@512@F@main@j?1!0&0#8| 

   (bvmul #b00000000000000000000000000001010 |c:verisec_sendmail_tTflag_arr_one_loop.c@512@F@main@i?1!0&0#20|))))

(assert 

 (= |c:verisec_sendmail_tTflag_arr_one_loop.c@493@F@main@c?1!0&0#9| 

  (select |c:verisec_sendmail_tTflag_arr_one_loop.c@448@F@main@in?1!0&0#12| #b1000)))

(assert 

 (= |goto_symex::guard?0!0&0#9| 

  (ite 

   (and 

    (not 

     (bvslt #b00000000000000000000000000111001 $e9)) 

    (not 

     (bvslt $e9 #b00000000000000000000000000110000))) #b1 #b0)))

(assert 

 (= |c:verisec_sendmail_tTflag_arr_one_loop.c@512@F@main@j?1!0&0#9| 

  (bvadd #b11111111111111111111111111010000 $e9)))

(assert 

 (= |c:verisec_sendmail_tTflag_arr_one_loop.c@512@F@main@i?1!0&0#22| 

  (bvadd |c:verisec_sendmail_tTflag_arr_one_loop.c@512@F@main@j?1!0&0#9| 

   (bvmul #b00000000000000000000000000001010 |c:verisec_sendmail_tTflag_arr_one_loop.c@512@F@main@i?1!0&0#21|))))

(assert 

 (= |c:verisec_sendmail_tTflag_arr_one_loop.c@493@F@main@c?1!0&0#10| 

  (select |c:verisec_sendmail_tTflag_arr_one_loop.c@448@F@main@in?1!0&0#12| #b1001)))

(assert 

 (= |goto_symex::guard?0!0&0#10| 

  (ite 

   (and 

    (not 

     (bvslt #b00000000000000000000000000111001 $e10)) 

    (not 

     (bvslt $e10 #b00000000000000000000000000110000))) #b1 #b0)))

(assert 

 (= |c:verisec_sendmail_tTflag_arr_one_loop.c@512@F@main@j?1!0&0#10| 

  (bvadd #b11111111111111111111111111010000 $e10)))

(assert 

 (= |c:verisec_sendmail_tTflag_arr_one_loop.c@512@F@main@i?1!0&0#23| 

  (bvadd |c:verisec_sendmail_tTflag_arr_one_loop.c@512@F@main@j?1!0&0#10| 

   (bvmul #b00000000000000000000000000001010 |c:verisec_sendmail_tTflag_arr_one_loop.c@512@F@main@i?1!0&0#22|))))

(assert 

 (= |c:verisec_sendmail_tTflag_arr_one_loop.c@493@F@main@c?1!0&0#11| 

  (select |c:verisec_sendmail_tTflag_arr_one_loop.c@448@F@main@in?1!0&0#12| #b1010)))

(assert 

 (= |goto_symex::guard?0!0&0#11| 

  (ite 

   (and 

    (not 

     (bvslt #b00000000000000000000000000111001 $e11)) 

    (not 

     (bvslt $e11 #b00000000000000000000000000110000))) #b1 #b0)))

(assert 

 (= |c:verisec_sendmail_tTflag_arr_one_loop.c@512@F@main@j?1!0&0#11| 

  (bvadd #b11111111111111111111111111010000 $e11)))

(assert 

 (= |c:verisec_sendmail_tTflag_arr_one_loop.c@512@F@main@i?1!0&0#24| 

  (bvadd |c:verisec_sendmail_tTflag_arr_one_loop.c@512@F@main@j?1!0&0#11| 

   (bvmul #b00000000000000000000000000001010 |c:verisec_sendmail_tTflag_arr_one_loop.c@512@F@main@i?1!0&0#23|))))

(assert 

 (= |c:verisec_sendmail_tTflag_arr_one_loop.c@493@F@main@c?1!0&0#12| 

  (select |c:verisec_sendmail_tTflag_arr_one_loop.c@448@F@main@in?1!0&0#12| #b1011)))

(assert 

 (= |goto_symex::guard?0!0&0#12| 

  (ite 

   (and 

    (not 

     (bvslt #b00000000000000000000000000111001 $e12)) 

    (not 

     (bvslt $e12 #b00000000000000000000000000110000))) #b1 #b0)))

(assert 

 (= |c:verisec_sendmail_tTflag_arr_one_loop.c@512@F@main@i?1!0&0#24| |c:verisec_sendmail_tTflag_arr_one_loop.c@512@F@main@i?1!0&0#26|))

(assert 

 (= |c:verisec_sendmail_tTflag_arr_one_loop.c@512@F@main@i?1!0&0#27| 

  (ite 

   (= #b1 |goto_symex::guard?0!0&0#11|) |c:verisec_sendmail_tTflag_arr_one_loop.c@512@F@main@i?1!0&0#26| |c:verisec_sendmail_tTflag_arr_one_loop.c@512@F@main@i?1!0&0#23|)))

(assert 

 (= |c:verisec_sendmail_tTflag_arr_one_loop.c@512@F@main@i?1!0&0#28| 

  (ite 

   (= #b1 |goto_symex::guard?0!0&0#10|) |c:verisec_sendmail_tTflag_arr_one_loop.c@512@F@main@i?1!0&0#27| |c:verisec_sendmail_tTflag_arr_one_loop.c@512@F@main@i?1!0&0#22|)))

(assert 

 (= |c:verisec_sendmail_tTflag_arr_one_loop.c@512@F@main@i?1!0&0#29| 

  (ite 

   (= #b1 |goto_symex::guard?0!0&0#9|) |c:verisec_sendmail_tTflag_arr_one_loop.c@512@F@main@i?1!0&0#28| |c:verisec_sendmail_tTflag_arr_one_loop.c@512@F@main@i?1!0&0#21|)))

(assert 

 (= |c:verisec_sendmail_tTflag_arr_one_loop.c@512@F@main@i?1!0&0#30| 

  (ite 

   (= #b1 |goto_symex::guard?0!0&0#8|) |c:verisec_sendmail_tTflag_arr_one_loop.c@512@F@main@i?1!0&0#29| |c:verisec_sendmail_tTflag_arr_one_loop.c@512@F@main@i?1!0&0#20|)))

(assert 

 (= |c:verisec_sendmail_tTflag_arr_one_loop.c@512@F@main@i?1!0&0#31| 

  (ite 

   (= #b1 |goto_symex::guard?0!0&0#7|) |c:verisec_sendmail_tTflag_arr_one_loop.c@512@F@main@i?1!0&0#30| |c:verisec_sendmail_tTflag_arr_one_loop.c@512@F@main@i?1!0&0#19|)))

(assert 

 (= |c:verisec_sendmail_tTflag_arr_one_loop.c@512@F@main@i?1!0&0#32| 

  (ite 

   (= #b1 |goto_symex::guard?0!0&0#6|) |c:verisec_sendmail_tTflag_arr_one_loop.c@512@F@main@i?1!0&0#31| |c:verisec_sendmail_tTflag_arr_one_loop.c@512@F@main@i?1!0&0#18|)))

(assert 

 (= |c:verisec_sendmail_tTflag_arr_one_loop.c@512@F@main@i?1!0&0#33| 

  (ite 

   (= #b1 |goto_symex::guard?0!0&0#5|) |c:verisec_sendmail_tTflag_arr_one_loop.c@512@F@main@i?1!0&0#32| |c:verisec_sendmail_tTflag_arr_one_loop.c@512@F@main@i?1!0&0#17|)))

(assert 

 (= |c:verisec_sendmail_tTflag_arr_one_loop.c@512@F@main@i?1!0&0#34| 

  (ite 

   (= #b1 |goto_symex::guard?0!0&0#4|) |c:verisec_sendmail_tTflag_arr_one_loop.c@512@F@main@i?1!0&0#33| |c:verisec_sendmail_tTflag_arr_one_loop.c@512@F@main@i?1!0&0#16|)))

(assert 

 (= |c:verisec_sendmail_tTflag_arr_one_loop.c@512@F@main@i?1!0&0#35| 

  (ite 

   (= #b1 |goto_symex::guard?0!0&0#3|) |c:verisec_sendmail_tTflag_arr_one_loop.c@512@F@main@i?1!0&0#34| |c:verisec_sendmail_tTflag_arr_one_loop.c@512@F@main@i?1!0&0#15|)))

(assert 

 (= |c:verisec_sendmail_tTflag_arr_one_loop.c@512@F@main@i?1!0&0#36| 

  (ite 

   (= #b1 |goto_symex::guard?0!0&0#2|) |c:verisec_sendmail_tTflag_arr_one_loop.c@512@F@main@i?1!0&0#35| |c:verisec_sendmail_tTflag_arr_one_loop.c@512@F@main@i?1!0&0#14|)))

(assert 

 (= |c:verisec_sendmail_tTflag_arr_one_loop.c@512@F@main@i?1!0&0#37| 

  (ite 

   (= #b1 |goto_symex::guard?0!0&0#1|) |c:verisec_sendmail_tTflag_arr_one_loop.c@512@F@main@i?1!0&0#36| #b00000000000000000000000000000000)))

(assert 

 (= |c:verisec_sendmail_tTflag_arr_one_loop.c@346@F@__VERIFIER_assert@cond?1!0&0#1| 

  (ite 

   (bvslt |c:verisec_sendmail_tTflag_arr_one_loop.c@512@F@main@i?1!0&0#37| #b00000000000000000000000000000000) #b00000000000000000000000000000000 #b00000000000000000000000000000001)))

(assert 

 (= |goto_symex::guard?0!0&0#13| 

  (ite 

   (= #b00000000000000000000000000000000 |c:verisec_sendmail_tTflag_arr_one_loop.c@346@F@__VERIFIER_assert@cond?1!0&0#1|) #b1 #b0)))

(assert (= |execution_statet::guard_exec?0!0| #b1))

(assert (= |goto_symex::guard?0!0&0#12| #b1))

(assert (= |goto_symex::guard?0!0&0#11| #b1))

(assert (= |goto_symex::guard?0!0&0#10| #b1))

(assert (= |goto_symex::guard?0!0&0#9| #b1))

(assert (= |goto_symex::guard?0!0&0#8| #b1))

(assert (= |goto_symex::guard?0!0&0#7| #b1))

(assert (= |goto_symex::guard?0!0&0#6| #b1))

(assert (= |goto_symex::guard?0!0&0#5| #b1))

(assert (= |goto_symex::guard?0!0&0#4| #b1))

(assert (= |goto_symex::guard?0!0&0#3| #b1))

(assert (= |goto_symex::guard?0!0&0#2| #b1))

(assert (= |goto_symex::guard?0!0&0#1| #b1))

(check-sat)

(exit)
